%BLOCK LATTICE_CART
ang    # angstrom units
  6.576000000000     0.000000000000     0.000000000000   
  0.000000000000     7.612000000000     0.000000000000   
 -2.399968181360    -3.806058019728     9.456713268305   
%ENDBLOCK LATTICE_CART

%BLOCK POSITIONS_FRAC
Al     0.000250000000     0.000300000000     0.000800000000   
Al     0.125250000000     0.000300000000     0.000800000000   
C      0.040000000000     0.018125000000     0.262333333333   
C      0.208750000000     0.232850000000     0.070933333333   
C      0.217750000000     0.019200000000     0.199866666667   
C      0.032500000000     0.240400000000     0.135733333333   
C      0.195250000000     0.006400000000     0.150400000000   
C      0.053000000000     0.244100000000     0.183600000000   
C      0.019500000000     0.007300000000     0.212133333333   
C      0.227500000000     0.237900000000     0.119733333333   
C      0.165000000000     0.178625000000     0.262333333333   
C      0.083750000000     0.070350000000     0.070933333333   
C      0.092750000000     0.130700000000     0.199866666667   
C      0.157500000000     0.111400000000     0.135733333333   
C      0.070250000000     0.106400000000     0.150400000000   
C      0.178000000000     0.143600000000     0.183600000000   
C      0.144500000000     0.151800000000     0.212133333333   
C      0.102500000000     0.101900000000     0.119733333333   
O      0.064000000000     0.222500000000     0.000000000000   
O      0.012750000000     0.027300000000     0.290800000000   
O      0.235000000000     0.220625000000     0.041666666667   
O      0.085000000000     0.001900000000     0.272400000000   
O      0.159250000000     0.233600000000     0.056266666667   
O      0.189000000000     0.027500000000     0.000000000000   
O      0.137750000000     0.190800000000     0.290800000000   
O      0.110000000000     0.060625000000     0.041666666667   
O      0.210000000000     0.202400000000     0.272400000000   
O      0.034250000000     0.058600000000     0.056266666667   
H      0.193997500000     0.037750000000     0.226373333333   
H      0.060410000000     0.239605000000     0.112596666667   
H      0.152347500000     0.011470000000     0.137333333333   
H      0.095075000000     0.236122500000     0.195466666667   
H      0.068997500000     0.132030000000     0.226373333333   
H      0.185410000000     0.094845000000     0.112596666667   
H      0.027347500000     0.091530000000     0.137333333333   
H      0.220075000000     0.160480000000     0.195466666667   
H      0.189000000000     0.062752500000     0.012416666667   
H      0.064000000000     0.187247500000     0.320916666667   
Al     0.000250000000     0.000300000000     0.334133333333   
Al     0.125250000000     0.000300000000     0.334133333333   
C      0.040000000000     0.018125000000     0.595666666667   
C      0.208750000000     0.232850000000     0.404266666667   
C      0.217750000000     0.019200000000     0.533200000000   
C      0.032500000000     0.240400000000     0.469066666667   
C      0.195250000000     0.006400000000     0.483733333333   
C      0.053000000000     0.244100000000     0.516933333333   
C      0.019500000000     0.007300000000     0.545466666667   
C      0.227500000000     0.237900000000     0.453066666667   
C      0.165000000000     0.178625000000     0.595666666667   
C      0.083750000000     0.070350000000     0.404266666667   
C      0.092750000000     0.130700000000     0.533200000000   
C      0.157500000000     0.111400000000     0.469066666667   
C      0.070250000000     0.106400000000     0.483733333333   
C      0.178000000000     0.143600000000     0.516933333333   
C      0.144500000000     0.151800000000     0.545466666667   
C      0.102500000000     0.101900000000     0.453066666667   
O      0.064000000000     0.222500000000     0.333333333333   
O      0.012750000000     0.027300000000     0.624133333333   
O      0.235000000000     0.220625000000     0.375000000000   
O      0.085000000000     0.001900000000     0.605733333333   
O      0.159250000000     0.233600000000     0.389600000000   
O      0.189000000000     0.027500000000     0.333333333333   
O      0.137750000000     0.190800000000     0.624133333333   
O      0.110000000000     0.060625000000     0.375000000000   
O      0.210000000000     0.202400000000     0.605733333333   
O      0.034250000000     0.058600000000     0.389600000000   
H      0.193997500000     0.037750000000     0.559706666667   
H      0.060410000000     0.239605000000     0.445930000000   
H      0.152347500000     0.011470000000     0.470666666667   
H      0.095075000000     0.236122500000     0.528800000000   
H      0.068997500000     0.132030000000     0.559706666667   
H      0.185410000000     0.094845000000     0.445930000000   
H      0.027347500000     0.091530000000     0.470666666667   
H      0.220075000000     0.160480000000     0.528800000000   
H      0.189000000000     0.062752500000     0.345750000000   
H      0.064000000000     0.187247500000     0.654250000000   
Al     0.000250000000     0.000300000000     0.667466666667   
Al     0.125250000000     0.000300000000     0.667466666667   
C      0.040000000000     0.018125000000     0.929000000000   
C      0.208750000000     0.232850000000     0.737600000000   
C      0.217750000000     0.019200000000     0.866533333333   
C      0.032500000000     0.240400000000     0.802400000000   
C      0.195250000000     0.006400000000     0.817066666667   
C      0.053000000000     0.244100000000     0.850266666667   
C      0.019500000000     0.007300000000     0.878800000000   
C      0.227500000000     0.237900000000     0.786400000000   
C      0.165000000000     0.178625000000     0.929000000000   
C      0.083750000000     0.070350000000     0.737600000000   
C      0.092750000000     0.130700000000     0.866533333333   
C      0.157500000000     0.111400000000     0.802400000000   
C      0.070250000000     0.106400000000     0.817066666667   
C      0.178000000000     0.143600000000     0.850266666667   
C      0.144500000000     0.151800000000     0.878800000000   
C      0.102500000000     0.101900000000     0.786400000000   
O      0.064000000000     0.222500000000     0.666666666667   
O      0.012750000000     0.027300000000     0.957466666667   
O      0.235000000000     0.220625000000     0.708333333333   
O      0.085000000000     0.001900000000     0.939066666667   
O      0.159250000000     0.233600000000     0.722933333333   
O      0.189000000000     0.027500000000     0.666666666667   
O      0.137750000000     0.190800000000     0.957466666667   
O      0.110000000000     0.060625000000     0.708333333333   
O      0.210000000000     0.202400000000     0.939066666667   
O      0.034250000000     0.058600000000     0.722933333333   
H      0.193997500000     0.037750000000     0.893040000000   
H      0.060410000000     0.239605000000     0.779263333333   
H      0.152347500000     0.011470000000     0.804000000000   
H      0.095075000000     0.236122500000     0.862133333333   
H      0.068997500000     0.132030000000     0.893040000000   
H      0.185410000000     0.094845000000     0.779263333333   
H      0.027347500000     0.091530000000     0.804000000000   
H      0.220075000000     0.160480000000     0.862133333333   
H      0.189000000000     0.062752500000     0.679083333333   
H      0.064000000000     0.187247500000     0.987583333333   
Al     0.000250000000     0.250300000000     0.000800000000   
Al     0.125250000000     0.250300000000     0.000800000000   
C      0.040000000000     0.268125000000     0.262333333333   
C      0.208750000000     0.482850000000     0.070933333333   
C      0.217750000000     0.269200000000     0.199866666667   
C      0.032500000000     0.490400000000     0.135733333333   
C      0.195250000000     0.256400000000     0.150400000000   
C      0.053000000000     0.494100000000     0.183600000000   
C      0.019500000000     0.257300000000     0.212133333333   
C      0.227500000000     0.487900000000     0.119733333333   
C      0.165000000000     0.428625000000     0.262333333333   
C      0.083750000000     0.320350000000     0.070933333333   
C      0.092750000000     0.380700000000     0.199866666667   
C      0.157500000000     0.361400000000     0.135733333333   
C      0.070250000000     0.356400000000     0.150400000000   
C      0.178000000000     0.393600000000     0.183600000000   
C      0.144500000000     0.401800000000     0.212133333333   
C      0.102500000000     0.351900000000     0.119733333333   
O      0.064000000000     0.472500000000     0.000000000000   
O      0.012750000000     0.277300000000     0.290800000000   
O      0.235000000000     0.470625000000     0.041666666667   
O      0.085000000000     0.251900000000     0.272400000000   
O      0.159250000000     0.483600000000     0.056266666667   
O      0.189000000000     0.277500000000     0.000000000000   
O      0.137750000000     0.440800000000     0.290800000000   
O      0.110000000000     0.310625000000     0.041666666667   
O      0.210000000000     0.452400000000     0.272400000000   
O      0.034250000000     0.308600000000     0.056266666667   
H      0.193997500000     0.287750000000     0.226373333333   
H      0.060410000000     0.489605000000     0.112596666667   
H      0.152347500000     0.261470000000     0.137333333333   
H      0.095075000000     0.486122500000     0.195466666667   
H      0.068997500000     0.382030000000     0.226373333333   
H      0.185410000000     0.344845000000     0.112596666667   
H      0.027347500000     0.341530000000     0.137333333333   
H      0.220075000000     0.410480000000     0.195466666667   
H      0.189000000000     0.312752500000     0.012416666667   
H      0.064000000000     0.437247500000     0.320916666667   
Al     0.000250000000     0.250300000000     0.334133333333   
Al     0.125250000000     0.250300000000     0.334133333333   
C      0.040000000000     0.268125000000     0.595666666667   
C      0.208750000000     0.482850000000     0.404266666667   
C      0.217750000000     0.269200000000     0.533200000000   
C      0.032500000000     0.490400000000     0.469066666667   
C      0.195250000000     0.256400000000     0.483733333333   
C      0.053000000000     0.494100000000     0.516933333333   
C      0.019500000000     0.257300000000     0.545466666667   
C      0.227500000000     0.487900000000     0.453066666667   
C      0.165000000000     0.428625000000     0.595666666667   
C      0.083750000000     0.320350000000     0.404266666667   
C      0.092750000000     0.380700000000     0.533200000000   
C      0.157500000000     0.361400000000     0.469066666667   
C      0.070250000000     0.356400000000     0.483733333333   
C      0.178000000000     0.393600000000     0.516933333333   
C      0.144500000000     0.401800000000     0.545466666667   
C      0.102500000000     0.351900000000     0.453066666667   
O      0.064000000000     0.472500000000     0.333333333333   
O      0.012750000000     0.277300000000     0.624133333333   
O      0.235000000000     0.470625000000     0.375000000000   
O      0.085000000000     0.251900000000     0.605733333333   
O      0.159250000000     0.483600000000     0.389600000000   
O      0.189000000000     0.277500000000     0.333333333333   
O      0.137750000000     0.440800000000     0.624133333333   
O      0.110000000000     0.310625000000     0.375000000000   
O      0.210000000000     0.452400000000     0.605733333333   
O      0.034250000000     0.308600000000     0.389600000000   
H      0.193997500000     0.287750000000     0.559706666667   
H      0.060410000000     0.489605000000     0.445930000000   
H      0.152347500000     0.261470000000     0.470666666667   
H      0.095075000000     0.486122500000     0.528800000000   
H      0.068997500000     0.382030000000     0.559706666667   
H      0.185410000000     0.344845000000     0.445930000000   
H      0.027347500000     0.341530000000     0.470666666667   
H      0.220075000000     0.410480000000     0.528800000000   
H      0.189000000000     0.312752500000     0.345750000000   
H      0.064000000000     0.437247500000     0.654250000000   
Al     0.000250000000     0.250300000000     0.667466666667   
Al     0.125250000000     0.250300000000     0.667466666667   
C      0.040000000000     0.268125000000     0.929000000000   
C      0.208750000000     0.482850000000     0.737600000000   
C      0.217750000000     0.269200000000     0.866533333333   
C      0.032500000000     0.490400000000     0.802400000000   
C      0.195250000000     0.256400000000     0.817066666667   
C      0.053000000000     0.494100000000     0.850266666667   
C      0.019500000000     0.257300000000     0.878800000000   
C      0.227500000000     0.487900000000     0.786400000000   
C      0.165000000000     0.428625000000     0.929000000000   
C      0.083750000000     0.320350000000     0.737600000000   
C      0.092750000000     0.380700000000     0.866533333333   
C      0.157500000000     0.361400000000     0.802400000000   
C      0.070250000000     0.356400000000     0.817066666667   
C      0.178000000000     0.393600000000     0.850266666667   
C      0.144500000000     0.401800000000     0.878800000000   
C      0.102500000000     0.351900000000     0.786400000000   
O      0.064000000000     0.472500000000     0.666666666667   
O      0.012750000000     0.277300000000     0.957466666667   
O      0.235000000000     0.470625000000     0.708333333333   
O      0.085000000000     0.251900000000     0.939066666667   
O      0.159250000000     0.483600000000     0.722933333333   
O      0.189000000000     0.277500000000     0.666666666667   
O      0.137750000000     0.440800000000     0.957466666667   
O      0.110000000000     0.310625000000     0.708333333333   
O      0.210000000000     0.452400000000     0.939066666667   
O      0.034250000000     0.308600000000     0.722933333333   
H      0.193997500000     0.287750000000     0.893040000000   
H      0.060410000000     0.489605000000     0.779263333333   
H      0.152347500000     0.261470000000     0.804000000000   
H      0.095075000000     0.486122500000     0.862133333333   
H      0.068997500000     0.382030000000     0.893040000000   
H      0.185410000000     0.344845000000     0.779263333333   
H      0.027347500000     0.341530000000     0.804000000000   
H      0.220075000000     0.410480000000     0.862133333333   
H      0.189000000000     0.312752500000     0.679083333333   
H      0.064000000000     0.437247500000     0.987583333333   
Al     0.000250000000     0.500300000000     0.000800000000   
Al     0.125250000000     0.500300000000     0.000800000000   
C      0.040000000000     0.518125000000     0.262333333333   
C      0.208750000000     0.732850000000     0.070933333333   
C      0.217750000000     0.519200000000     0.199866666667   
C      0.032500000000     0.740400000000     0.135733333333   
C      0.195250000000     0.506400000000     0.150400000000   
C      0.053000000000     0.744100000000     0.183600000000   
C      0.019500000000     0.507300000000     0.212133333333   
C      0.227500000000     0.737900000000     0.119733333333   
C      0.165000000000     0.678625000000     0.262333333333   
C      0.083750000000     0.570350000000     0.070933333333   
C      0.092750000000     0.630700000000     0.199866666667   
C      0.157500000000     0.611400000000     0.135733333333   
C      0.070250000000     0.606400000000     0.150400000000   
C      0.178000000000     0.643600000000     0.183600000000   
C      0.144500000000     0.651800000000     0.212133333333   
C      0.102500000000     0.601900000000     0.119733333333   
O      0.064000000000     0.722500000000     0.000000000000   
O      0.012750000000     0.527300000000     0.290800000000   
O      0.235000000000     0.720625000000     0.041666666667   
O      0.085000000000     0.501900000000     0.272400000000   
O      0.159250000000     0.733600000000     0.056266666667   
O      0.189000000000     0.527500000000     0.000000000000   
O      0.137750000000     0.690800000000     0.290800000000   
O      0.110000000000     0.560625000000     0.041666666667   
O      0.210000000000     0.702400000000     0.272400000000   
O      0.034250000000     0.558600000000     0.056266666667   
H      0.193997500000     0.537750000000     0.226373333333   
H      0.060410000000     0.739605000000     0.112596666667   
H      0.152347500000     0.511470000000     0.137333333333   
H      0.095075000000     0.736122500000     0.195466666667   
H      0.068997500000     0.632030000000     0.226373333333   
H      0.185410000000     0.594845000000     0.112596666667   
H      0.027347500000     0.591530000000     0.137333333333   
H      0.220075000000     0.660480000000     0.195466666667   
H      0.189000000000     0.562752500000     0.012416666667   
H      0.064000000000     0.687247500000     0.320916666667   
Al     0.000250000000     0.500300000000     0.334133333333   
Al     0.125250000000     0.500300000000     0.334133333333   
C      0.040000000000     0.518125000000     0.595666666667   
C      0.208750000000     0.732850000000     0.404266666667   
C      0.217750000000     0.519200000000     0.533200000000   
C      0.032500000000     0.740400000000     0.469066666667   
C      0.195250000000     0.506400000000     0.483733333333   
C      0.053000000000     0.744100000000     0.516933333333   
C      0.019500000000     0.507300000000     0.545466666667   
C      0.227500000000     0.737900000000     0.453066666667   
C      0.165000000000     0.678625000000     0.595666666667   
C      0.083750000000     0.570350000000     0.404266666667   
C      0.092750000000     0.630700000000     0.533200000000   
C      0.157500000000     0.611400000000     0.469066666667   
C      0.070250000000     0.606400000000     0.483733333333   
C      0.178000000000     0.643600000000     0.516933333333   
C      0.144500000000     0.651800000000     0.545466666667   
C      0.102500000000     0.601900000000     0.453066666667   
O      0.064000000000     0.722500000000     0.333333333333   
O      0.012750000000     0.527300000000     0.624133333333   
O      0.235000000000     0.720625000000     0.375000000000   
O      0.085000000000     0.501900000000     0.605733333333   
O      0.159250000000     0.733600000000     0.389600000000   
O      0.189000000000     0.527500000000     0.333333333333   
O      0.137750000000     0.690800000000     0.624133333333   
O      0.110000000000     0.560625000000     0.375000000000   
O      0.210000000000     0.702400000000     0.605733333333   
O      0.034250000000     0.558600000000     0.389600000000   
H      0.193997500000     0.537750000000     0.559706666667   
H      0.060410000000     0.739605000000     0.445930000000   
H      0.152347500000     0.511470000000     0.470666666667   
H      0.095075000000     0.736122500000     0.528800000000   
H      0.068997500000     0.632030000000     0.559706666667   
H      0.185410000000     0.594845000000     0.445930000000   
H      0.027347500000     0.591530000000     0.470666666667   
H      0.220075000000     0.660480000000     0.528800000000   
H      0.189000000000     0.562752500000     0.345750000000   
H      0.064000000000     0.687247500000     0.654250000000   
Al     0.000250000000     0.500300000000     0.667466666667   
Al     0.125250000000     0.500300000000     0.667466666667   
C      0.040000000000     0.518125000000     0.929000000000   
C      0.208750000000     0.732850000000     0.737600000000   
C      0.217750000000     0.519200000000     0.866533333333   
C      0.032500000000     0.740400000000     0.802400000000   
C      0.195250000000     0.506400000000     0.817066666667   
C      0.053000000000     0.744100000000     0.850266666667   
C      0.019500000000     0.507300000000     0.878800000000   
C      0.227500000000     0.737900000000     0.786400000000   
C      0.165000000000     0.678625000000     0.929000000000   
C      0.083750000000     0.570350000000     0.737600000000   
C      0.092750000000     0.630700000000     0.866533333333   
C      0.157500000000     0.611400000000     0.802400000000   
C      0.070250000000     0.606400000000     0.817066666667   
C      0.178000000000     0.643600000000     0.850266666667   
C      0.144500000000     0.651800000000     0.878800000000   
C      0.102500000000     0.601900000000     0.786400000000   
O      0.064000000000     0.722500000000     0.666666666667   
O      0.012750000000     0.527300000000     0.957466666667   
O      0.235000000000     0.720625000000     0.708333333333   
O      0.085000000000     0.501900000000     0.939066666667   
O      0.159250000000     0.733600000000     0.722933333333   
O      0.189000000000     0.527500000000     0.666666666667   
O      0.137750000000     0.690800000000     0.957466666667   
O      0.110000000000     0.560625000000     0.708333333333   
O      0.210000000000     0.702400000000     0.939066666667   
O      0.034250000000     0.558600000000     0.722933333333   
H      0.193997500000     0.537750000000     0.893040000000   
H      0.060410000000     0.739605000000     0.779263333333   
H      0.152347500000     0.511470000000     0.804000000000   
H      0.095075000000     0.736122500000     0.862133333333   
H      0.068997500000     0.632030000000     0.893040000000   
H      0.185410000000     0.594845000000     0.779263333333   
H      0.027347500000     0.591530000000     0.804000000000   
H      0.220075000000     0.660480000000     0.862133333333   
H      0.189000000000     0.562752500000     0.679083333333   
H      0.064000000000     0.687247500000     0.987583333333   
Al     0.000250000000     0.750300000000     0.000800000000   
Al     0.125250000000     0.750300000000     0.000800000000   
C      0.040000000000     0.768125000000     0.262333333333   
C      0.208750000000     0.982850000000     0.070933333333   
C      0.217750000000     0.769200000000     0.199866666667   
C      0.032500000000     0.990400000000     0.135733333333   
C      0.195250000000     0.756400000000     0.150400000000   
C      0.053000000000     0.994100000000     0.183600000000   
C      0.019500000000     0.757300000000     0.212133333333   
C      0.227500000000     0.987900000000     0.119733333333   
C      0.165000000000     0.928625000000     0.262333333333   
C      0.083750000000     0.820350000000     0.070933333333   
C      0.092750000000     0.880700000000     0.199866666667   
C      0.157500000000     0.861400000000     0.135733333333   
C      0.070250000000     0.856400000000     0.150400000000   
C      0.178000000000     0.893600000000     0.183600000000   
C      0.144500000000     0.901800000000     0.212133333333   
C      0.102500000000     0.851900000000     0.119733333333   
O      0.064000000000     0.972500000000     0.000000000000   
O      0.012750000000     0.777300000000     0.290800000000   
O      0.235000000000     0.970625000000     0.041666666667   
O      0.085000000000     0.751900000000     0.272400000000   
O      0.159250000000     0.983600000000     0.056266666667   
O      0.189000000000     0.777500000000     0.000000000000   
O      0.137750000000     0.940800000000     0.290800000000   
O      0.110000000000     0.810625000000     0.041666666667   
O      0.210000000000     0.952400000000     0.272400000000   
O      0.034250000000     0.808600000000     0.056266666667   
H      0.193997500000     0.787750000000     0.226373333333   
H      0.060410000000     0.989605000000     0.112596666667   
H      0.152347500000     0.761470000000     0.137333333333   
H      0.095075000000     0.986122500000     0.195466666667   
H      0.068997500000     0.882030000000     0.226373333333   
H      0.185410000000     0.844845000000     0.112596666667   
H      0.027347500000     0.841530000000     0.137333333333   
H      0.220075000000     0.910480000000     0.195466666667   
H      0.189000000000     0.812752500000     0.012416666667   
H      0.064000000000     0.937247500000     0.320916666667   
Al     0.000250000000     0.750300000000     0.334133333333   
Al     0.125250000000     0.750300000000     0.334133333333   
C      0.040000000000     0.768125000000     0.595666666667   
C      0.208750000000     0.982850000000     0.404266666667   
C      0.217750000000     0.769200000000     0.533200000000   
C      0.032500000000     0.990400000000     0.469066666667   
C      0.195250000000     0.756400000000     0.483733333333   
C      0.053000000000     0.994100000000     0.516933333333   
C      0.019500000000     0.757300000000     0.545466666667   
C      0.227500000000     0.987900000000     0.453066666667   
C      0.165000000000     0.928625000000     0.595666666667   
C      0.083750000000     0.820350000000     0.404266666667   
C      0.092750000000     0.880700000000     0.533200000000   
C      0.157500000000     0.861400000000     0.469066666667   
C      0.070250000000     0.856400000000     0.483733333333   
C      0.178000000000     0.893600000000     0.516933333333   
C      0.144500000000     0.901800000000     0.545466666667   
C      0.102500000000     0.851900000000     0.453066666667   
O      0.064000000000     0.972500000000     0.333333333333   
O      0.012750000000     0.777300000000     0.624133333333   
O      0.235000000000     0.970625000000     0.375000000000   
O      0.085000000000     0.751900000000     0.605733333333   
O      0.159250000000     0.983600000000     0.389600000000   
O      0.189000000000     0.777500000000     0.333333333333   
O      0.137750000000     0.940800000000     0.624133333333   
O      0.110000000000     0.810625000000     0.375000000000   
O      0.210000000000     0.952400000000     0.605733333333   
O      0.034250000000     0.808600000000     0.389600000000   
H      0.193997500000     0.787750000000     0.559706666667   
H      0.060410000000     0.989605000000     0.445930000000   
H      0.152347500000     0.761470000000     0.470666666667   
H      0.095075000000     0.986122500000     0.528800000000   
H      0.068997500000     0.882030000000     0.559706666667   
H      0.185410000000     0.844845000000     0.445930000000   
H      0.027347500000     0.841530000000     0.470666666667   
H      0.220075000000     0.910480000000     0.528800000000   
H      0.189000000000     0.812752500000     0.345750000000   
H      0.064000000000     0.937247500000     0.654250000000   
Al     0.000250000000     0.750300000000     0.667466666667   
Al     0.125250000000     0.750300000000     0.667466666667   
C      0.040000000000     0.768125000000     0.929000000000   
C      0.208750000000     0.982850000000     0.737600000000   
C      0.217750000000     0.769200000000     0.866533333333   
C      0.032500000000     0.990400000000     0.802400000000   
C      0.195250000000     0.756400000000     0.817066666667   
C      0.053000000000     0.994100000000     0.850266666667   
C      0.019500000000     0.757300000000     0.878800000000   
C      0.227500000000     0.987900000000     0.786400000000   
C      0.165000000000     0.928625000000     0.929000000000   
C      0.083750000000     0.820350000000     0.737600000000   
C      0.092750000000     0.880700000000     0.866533333333   
C      0.157500000000     0.861400000000     0.802400000000   
C      0.070250000000     0.856400000000     0.817066666667   
C      0.178000000000     0.893600000000     0.850266666667   
C      0.144500000000     0.901800000000     0.878800000000   
C      0.102500000000     0.851900000000     0.786400000000   
O      0.064000000000     0.972500000000     0.666666666667   
O      0.012750000000     0.777300000000     0.957466666667   
O      0.235000000000     0.970625000000     0.708333333333   
O      0.085000000000     0.751900000000     0.939066666667   
O      0.159250000000     0.983600000000     0.722933333333   
O      0.189000000000     0.777500000000     0.666666666667   
O      0.137750000000     0.940800000000     0.957466666667   
O      0.110000000000     0.810625000000     0.708333333333   
O      0.210000000000     0.952400000000     0.939066666667   
O      0.034250000000     0.808600000000     0.722933333333   
H      0.193997500000     0.787750000000     0.893040000000   
H      0.060410000000     0.989605000000     0.779263333333   
H      0.152347500000     0.761470000000     0.804000000000   
H      0.095075000000     0.986122500000     0.862133333333   
H      0.068997500000     0.882030000000     0.893040000000   
H      0.185410000000     0.844845000000     0.779263333333   
H      0.027347500000     0.841530000000     0.804000000000   
H      0.220075000000     0.910480000000     0.862133333333   
H      0.189000000000     0.812752500000     0.679083333333   
H      0.064000000000     0.937247500000     0.987583333333   
Al     0.250250000000     0.000300000000     0.000800000000   
Al     0.375250000000     0.000300000000     0.000800000000   
C      0.290000000000     0.018125000000     0.262333333333   
C      0.458750000000     0.232850000000     0.070933333333   
C      0.467750000000     0.019200000000     0.199866666667   
C      0.282500000000     0.240400000000     0.135733333333   
C      0.445250000000     0.006400000000     0.150400000000   
C      0.303000000000     0.244100000000     0.183600000000   
C      0.269500000000     0.007300000000     0.212133333333   
C      0.477500000000     0.237900000000     0.119733333333   
C      0.415000000000     0.178625000000     0.262333333333   
C      0.333750000000     0.070350000000     0.070933333333   
C      0.342750000000     0.130700000000     0.199866666667   
C      0.407500000000     0.111400000000     0.135733333333   
C      0.320250000000     0.106400000000     0.150400000000   
C      0.428000000000     0.143600000000     0.183600000000   