SimulationType                MonteCarlo
NumberOfCycles                2000
NumberOfInitializationCycles  1000
PrintEvery                    200
RestartFile                   no

Forcefield                    CrystalGenerator
CutOff                        12.8
ChargeMethod                  Ewald
EwaldPrecision                1e-6
UseChargesFromMOLFile         no

Framework                     0
FrameworkName                 SABWAU_SL_coremof-2019
InputFileType                 cif
UnitCells                     4 4 3
HeliumVoidFraction            1.0
ExternalTemperature           298.15
ExternalPressure              10.0

Movies                        no
WriteMoviesEvery              100

Component 0 MoleculeName             N2
            StartingBead             0
            MoleculeDefinition       TraPPE
            IdealGasRosenbluthWeight 1.0
            TranslationProbability   1.0
            RotationProbability      1.0
            ReinsertionProbability   1.0
            SwapProbability          1.0
            CreateNumberOfMolecules  0