%BLOCK LATTICE_CART
ang    # angstrom units
  19.504200000000    0.000000000000     0.000000000000   
  0.000000000000     15.201400000000    0.000000000000   
 -1.609274659057     0.000000000000     6.369139467912   
%ENDBLOCK LATTICE_CART

%BLOCK POSITIONS_FRAC
Al     0.250150000000     0.121850000000     0.127700000000   
O      0.249950000000     0.151250000000     0.066275000000   
O      0.497800000000     0.276050000000     0.059600000000   
O      0.457950000000     0.034800000000     0.218050000000   
O      0.467750000000     0.044500000000     0.137325000000   
O      0.278650000000     0.079450000000     0.111275000000   
O      0.291250000000     0.092400000000     0.035250000000   
C      0.409900000000     0.053310000000     0.147375000000   
C      0.386350000000     0.053320000000     0.178850000000   
C      0.350350000000     0.062395000000     0.157025000000   
C      0.337850000000     0.071195000000     0.104400000000   
C      0.361500000000     0.071105000000     0.073400000000   
C      0.397400000000     0.062120000000     0.095275000000   
C      0.447700000000     0.043655000000     0.168750000000   
C      0.300450000000     0.081210000000     0.082525000000   
H      0.394750000000     0.046995000000     0.216275000000   
H      0.333600000000     0.062550000000     0.179650000000   
H      0.353100000000     0.077465000000     0.036100000000   
H      0.414150000000     0.061950000000     0.072850000000   
O      0.207050000000     0.153200000000     0.216625000000   
O      0.221200000000     0.173300000000     0.141800000000   
O      0.031600000000     0.208450000000     0.114200000000   
O      0.043050000000     0.214850000000     0.035025000000   
C      0.161850000000     0.178550000000     0.147400000000   
C      0.137500000000     0.172200000000     0.176675000000   
C      0.101400000000     0.181800000000     0.155500000000   
C      0.089950000000     0.197585000000     0.105350000000   
C      0.114350000000     0.204150000000     0.075475000000   
C      0.150500000000     0.194500000000     0.096875000000   
C      0.199250000000     0.168015000000     0.169625000000   
C      0.052400000000     0.207645000000     0.083900000000   
H      0.145400000000     0.160850000000     0.212275000000   
H      0.084050000000     0.177250000000     0.176650000000   
H      0.106350000000     0.215500000000     0.039800000000   
H      0.168050000000     0.198950000000     0.075825000000   
H      0.247500000000     0.180300000000     0.069750000000   
H      0.496500000000     0.305100000000     0.061250000000   
Al     0.249850000000     0.371850000000     0.247300000000   
O      0.250050000000     0.401250000000     0.058725000000   
O      0.002200000000     0.026050000000     0.065400000000   
O      0.042050000000     0.284800000000     0.156950000000   
O      0.032250000000     0.294500000000     0.237675000000   
O      0.221350000000     0.329450000000     0.013725000000   
O      0.208750000000     0.342400000000     0.089750000000   
C      0.090100000000     0.303310000000     0.227625000000   
C      0.113650000000     0.303320000000     0.196150000000   
C      0.149650000000     0.312395000000     0.217975000000   
C      0.162150000000     0.321195000000     0.020600000000   
C      0.138500000000     0.321105000000     0.051600000000   
C      0.102600000000     0.312120000000     0.029725000000   
C      0.052300000000     0.293655000000     0.206250000000   
C      0.199550000000     0.331210000000     0.042475000000   
H      0.105250000000     0.296995000000     0.158725000000   
H      0.166400000000     0.312550000000     0.195350000000   
H      0.146900000000     0.327465000000     0.088900000000   
H      0.085850000000     0.311950000000     0.052150000000   
O      0.292950000000     0.403200000000     0.158375000000   
O      0.278800000000     0.423300000000     0.233200000000   
O      0.468400000000     0.458450000000     0.010800000000   
O      0.456950000000     0.464850000000     0.089975000000   
C      0.338150000000     0.428550000000     0.227600000000   
C      0.362500000000     0.422200000000     0.198325000000   
C      0.398600000000     0.431800000000     0.219500000000   
C      0.410050000000     0.447585000000     0.019650000000   
C      0.385650000000     0.454150000000     0.049525000000   
C      0.349500000000     0.444500000000     0.028125000000   
C      0.300750000000     0.418015000000     0.205375000000   
C      0.447600000000     0.457645000000     0.041100000000   
H      0.354600000000     0.410850000000     0.162725000000   
H      0.415950000000     0.427250000000     0.198350000000   
H      0.393650000000     0.465500000000     0.085200000000   
H      0.331950000000     0.448950000000     0.049175000000   
H      0.252500000000     0.430300000000     0.055250000000   
H      0.003500000000     0.055100000000     0.063750000000   
Al     0.249850000000     0.378150000000     0.122300000000   
O      0.250050000000     0.348750000000     0.183725000000   
O      0.002200000000     0.223950000000     0.190400000000   
O      0.042050000000     0.465200000000     0.031950000000   
O      0.032250000000     0.455500000000     0.112675000000   
O      0.221350000000     0.420550000000     0.138725000000   
O      0.208750000000     0.407600000000     0.214750000000   
C      0.090100000000     0.446690000000     0.102625000000   
C      0.113650000000     0.446680000000     0.071150000000   
C      0.149650000000     0.437605000000     0.092975000000   
C      0.162150000000     0.428805000000     0.145600000000   
C      0.138500000000     0.428895000000     0.176600000000   
C      0.102600000000     0.437880000000     0.154725000000   
C      0.052300000000     0.456345000000     0.081250000000   
C      0.199550000000     0.418790000000     0.167475000000   
H      0.105250000000     0.453005000000     0.033725000000   
H      0.166400000000     0.437450000000     0.070350000000   
H      0.146900000000     0.422535000000     0.213900000000   
H      0.085850000000     0.438050000000     0.177150000000   
O      0.292950000000     0.346800000000     0.033375000000   
O      0.278800000000     0.326700000000     0.108200000000   
O      0.468400000000     0.291550000000     0.135800000000   
O      0.456950000000     0.285150000000     0.214975000000   
C      0.338150000000     0.321450000000     0.102600000000   
C      0.362500000000     0.327800000000     0.073325000000   
C      0.398600000000     0.318200000000     0.094500000000   
C      0.410050000000     0.302415000000     0.144650000000   
C      0.385650000000     0.295850000000     0.174525000000   
C      0.349500000000     0.305500000000     0.153125000000   
C      0.300750000000     0.331985000000     0.080375000000   
C      0.447600000000     0.292355000000     0.166100000000   
H      0.354600000000     0.339150000000     0.037725000000   
H      0.415950000000     0.322750000000     0.073350000000   
H      0.393650000000     0.284500000000     0.210200000000   
H      0.331950000000     0.301050000000     0.174175000000   
H      0.252500000000     0.319700000000     0.180250000000   
H      0.003500000000     0.194900000000     0.188750000000   
Al     0.250150000000     0.128150000000     0.002700000000   
O      0.249950000000     0.098750000000     0.191275000000   
O      0.497800000000     0.473950000000     0.184600000000   
O      0.457950000000     0.215200000000     0.093050000000   
O      0.467750000000     0.205500000000     0.012325000000   
O      0.278650000000     0.170550000000     0.236275000000   
O      0.291250000000     0.157600000000     0.160250000000   
C      0.409900000000     0.196690000000     0.022375000000   
C      0.386350000000     0.196680000000     0.053850000000   
C      0.350350000000     0.187605000000     0.032025000000   
C      0.337850000000     0.178805000000     0.229400000000   
C      0.361500000000     0.178895000000     0.198400000000   
C      0.397400000000     0.187880000000     0.220275000000   
C      0.447700000000     0.206345000000     0.043750000000   
C      0.300450000000     0.168790000000     0.207525000000   
H      0.394750000000     0.203005000000     0.091275000000   
H      0.333600000000     0.187450000000     0.054650000000   
H      0.353100000000     0.172535000000     0.161100000000   
H      0.414150000000     0.188050000000     0.197850000000   
O      0.207050000000     0.096800000000     0.091625000000   
O      0.221200000000     0.076700000000     0.016800000000   
O      0.031600000000     0.041550000000     0.239200000000   
O      0.043050000000     0.035150000000     0.160025000000   
C      0.161850000000     0.071450000000     0.022400000000   
C      0.137500000000     0.077800000000     0.051675000000   
C      0.101400000000     0.068200000000     0.030500000000   
C      0.089950000000     0.052415000000     0.230350000000   
C      0.114350000000     0.045850000000     0.200475000000   
C      0.150500000000     0.055500000000     0.221875000000   
C      0.199250000000     0.081985000000     0.044625000000   
C      0.052400000000     0.042355000000     0.208900000000   
H      0.145400000000     0.089150000000     0.087275000000   
H      0.084050000000     0.072750000000     0.051650000000   
H      0.106350000000     0.034500000000     0.164800000000   
H      0.168050000000     0.051050000000     0.200825000000   
H      0.247500000000     0.069700000000     0.194750000000   
H      0.496500000000     0.444900000000     0.186250000000   
Al     0.000000000000     0.250000000000     0.000000000000   
Al     0.000000000000     0.000000000000     0.125000000000   
Al     0.000000000000     0.250000000000     0.125000000000   
Al     0.000000000000     0.000000000000     0.000000000000   
Al     0.250150000000     0.121850000000     0.377700000000   
O      0.249950000000     0.151250000000     0.316275000000   
O      0.497800000000     0.276050000000     0.309600000000   
O      0.457950000000     0.034800000000     0.468050000000   
O      0.467750000000     0.044500000000     0.387325000000   
O      0.278650000000     0.079450000000     0.361275000000   
O      0.291250000000     0.092400000000     0.285250000000   
C      0.409900000000     0.053310000000     0.397375000000   
C      0.386350000000     0.053320000000     0.428850000000   
C      0.350350000000     0.062395000000     0.407025000000   
C      0.337850000000     0.071195000000     0.354400000000   
C      0.361500000000     0.071105000000     0.323400000000   
C      0.397400000000     0.062120000000     0.345275000000   
C      0.447700000000     0.043655000000     0.418750000000   
C      0.300450000000     0.081210000000     0.332525000000   
H      0.394750000000     0.046995000000     0.466275000000   
H      0.333600000000     0.062550000000     0.429650000000   
H      0.353100000000     0.077465000000     0.286100000000   
H      0.414150000000     0.061950000000     0.322850000000   
O      0.207050000000     0.153200000000     0.466625000000   
O      0.221200000000     0.173300000000     0.391800000000   
O      0.031600000000     0.208450000000     0.364200000000   
O      0.043050000000     0.214850000000     0.285025000000   
C      0.161850000000     0.178550000000     0.397400000000   
C      0.137500000000     0.172200000000     0.426675000000   
C      0.101400000000     0.181800000000     0.405500000000   
C      0.089950000000     0.197585000000     0.355350000000   
C      0.114350000000     0.204150000000     0.325475000000   
C      0.150500000000     0.194500000000     0.346875000000   
C      0.199250000000     0.168015000000     0.419625000000   
C      0.052400000000     0.207645000000     0.333900000000   
H      0.145400000000     0.160850000000     0.462275000000   
H      0.084050000000     0.177250000000     0.426650000000   
H      0.106350000000     0.215500000000     0.289800000000   
H      0.168050000000     0.198950000000     0.325825000000   
H      0.247500000000     0.180300000000     0.319750000000   
H      0.496500000000     0.305100000000     0.311250000000   
Al     0.249850000000     0.371850000000     0.497300000000   
O      0.250050000000     0.401250000000     0.308725000000   
O      0.002200000000     0.026050000000     0.315400000000   
O      0.042050000000     0.284800000000     0.406950000000   
O      0.032250000000     0.294500000000     0.487675000000   
O      0.221350000000     0.329450000000     0.263725000000   
O      0.208750000000     0.342400000000     0.339750000000   
C      0.090100000000     0.303310000000     0.477625000000   
C      0.113650000000     0.303320000000     0.446150000000   
C      0.149650000000     0.312395000000     0.467975000000   
C      0.162150000000     0.321195000000     0.270600000000   
C      0.138500000000     0.321105000000     0.301600000000   
C      0.102600000000     0.312120000000     0.279725000000   
C      0.052300000000     0.293655000000     0.456250000000   
C      0.199550000000     0.331210000000     0.292475000000   
H      0.105250000000     0.296995000000     0.408725000000   
H      0.166400000000     0.312550000000     0.445350000000   
H      0.146900000000     0.327465000000     0.338900000000   
H      0.085850000000     0.311950000000     0.302150000000   
O      0.292950000000     0.403200000000     0.408375000000   
O      0.278800000000     0.423300000000     0.483200000000   
O      0.468400000000     0.458450000000     0.260800000000   
O      0.456950000000     0.464850000000     0.339975000000   
C      0.338150000000     0.428550000000     0.477600000000   
C      0.362500000000     0.422200000000     0.448325000000   
C      0.398600000000     0.431800000000     0.469500000000   
C      0.410050000000     0.447585000000     0.269650000000   
C      0.385650000000     0.454150000000     0.299525000000   
C      0.349500000000     0.444500000000     0.278125000000   
C      0.300750000000     0.418015000000     0.455375000000   
C      0.447600000000     0.457645000000     0.291100000000   
H      0.354600000000     0.410850000000     0.412725000000   
H      0.415950000000     0.427250000000     0.448350000000   
H      0.393650000000     0.465500000000     0.335200000000   
H      0.331950000000     0.448950000000     0.299175000000   
H      0.252500000000     0.430300000000     0.305250000000   
H      0.003500000000     0.055100000000     0.313750000000   
Al     0.249850000000     0.378150000000     0.372300000000   
O      0.250050000000     0.348750000000     0.433725000000   
O      0.002200000000     0.223950000000     0.440400000000   
O      0.042050000000     0.465200000000     0.281950000000   
O      0.032250000000     0.455500000000     0.362675000000   
O      0.221350000000     0.420550000000     0.388725000000   
O      0.208750000000     0.407600000000     0.464750000000   
C      0.090100000000     0.446690000000     0.352625000000   
C      0.113650000000     0.446680000000     0.321150000000   
C      0.149650000000     0.437605000000     0.342975000000   
C      0.162150000000     0.428805000000     0.395600000000   
C      0.138500000000     0.428895000000     0.426600000000   
C      0.102600000000     0.437880000000     0.404725000000   
C      0.052300000000     0.456345000000     0.331250000000   
C      0.199550000000     0.418790000000     0.417475000000   
H      0.105250000000     0.453005000000     0.283725000000   
H      0.166400000000     0.437450000000     0.320350000000   
H      0.146900000000     0.422535000000     0.463900000000   
H      0.085850000000     0.438050000000     0.427150000000   
O      0.292950000000     0.346800000000     0.283375000000   
O      0.278800000000     0.326700000000     0.358200000000   
O      0.468400000000     0.291550000000     0.385800000000   
O      0.456950000000     0.285150000000     0.464975000000   
C      0.338150000000     0.321450000000     0.352600000000   
C      0.362500000000     0.327800000000     0.323325000000   
C      0.398600000000     0.318200000000     0.344500000000   
C      0.410050000000     0.302415000000     0.394650000000   
C      0.385650000000     0.295850000000     0.424525000000   
C      0.349500000000     0.305500000000     0.403125000000   
C      0.300750000000     0.331985000000     0.330375000000   
C      0.447600000000     0.292355000000     0.416100000000   
H      0.354600000000     0.339150000000     0.287725000000   
H      0.415950000000     0.322750000000     0.323350000000   
H      0.393650000000     0.284500000000     0.460200000000   
H      0.331950000000     0.301050000000     0.424175000000   
H      0.252500000000     0.319700000000     0.430250000000   
H      0.003500000000     0.194900000000     0.438750000000   
Al     0.250150000000     0.128150000000     0.252700000000   
O      0.249950000000     0.098750000000     0.441275000000   
O      0.497800000000     0.473950000000     0.434600000000   
O      0.457950000000     0.215200000000     0.343050000000   
O      0.467750000000     0.205500000000     0.262325000000   
O      0.278650000000     0.170550000000     0.486275000000   
O      0.291250000000     0.157600000000     0.410250000000   
C      0.409900000000     0.196690000000     0.272375000000   
C      0.386350000000     0.196680000000     0.303850000000   
C      0.350350000000     0.187605000000     0.282025000000   
C      0.337850000000     0.178805000000     0.479400000000   
C      0.361500000000     0.178895000000     0.448400000000   
C      0.397400000000     0.187880000000     0.470275000000   
C      0.447700000000     0.206345000000     0.293750000000   
C      0.300450000000     0.168790000000     0.457525000000   
H      0.394750000000     0.203005000000     0.341275000000   
H      0.333600000000     0.187450000000     0.304650000000   
H      0.353100000000     0.172535000000     0.411100000000   
H      0.414150000000     0.188050000000     0.447850000000   
O      0.207050000000     0.096800000000     0.341625000000   
O      0.221200000000     0.076700000000     0.266800000000   
O      0.031600000000     0.041550000000     0.489200000000   
O      0.043050000000     0.035150000000     0.410025000000   
C      0.161850000000     0.071450000000     0.272400000000   
C      0.137500000000     0.077800000000     0.301675000000   
C      0.101400000000     0.068200000000     0.280500000000   
C      0.089950000000     0.052415000000     0.480350000000   
C      0.114350000000     0.045850000000     0.450475000000   
C      0.150500000000     0.055500000000     0.471875000000   
C      0.199250000000     0.081985000000     0.294625000000   
C      0.052400000000     0.042355000000     0.458900000000   
H      0.145400000000     0.089150000000     0.337275000000   
H      0.084050000000     0.072750000000     0.301650000000   
H      0.106350000000     0.034500000000     0.414800000000   
H      0.168050000000     0.051050000000     0.450825000000   
H      0.247500000000     0.069700000000     0.444750000000   
H      0.496500000000     0.444900000000     0.436250000000   
Al     0.000000000000     0.250000000000     0.250000000000   
Al     0.000000000000     0.000000000000     0.375000000000   
Al     0.000000000000     0.250000000000     0.375000000000   
Al     0.000000000000     0.000000000000     0.250000000000   
Al     0.250150000000     0.121850000000     0.627700000000   
O      0.249950000000     0.151250000000     0.566275000000   
O      0.497800000000     0.276050000000     0.559600000000   
O      0.457950000000     0.034800000000     0.718050000000   
O      0.467750000000     0.044500000000     0.637325000000   
O      0.278650000000     0.079450000000     0.611275000000   
O      0.291250000000     0.092400000000     0.535250000000   
C      0.409900000000     0.053310000000     0.647375000000   
C      0.386350000000     0.053320000000     0.678850000000   
C      0.350350000000     0.062395000000     0.657025000000   
C      0.337850000000     0.071195000000     0.604400000000   
C      0.361500000000     0.071105000000     0.573400000000   
C      0.397400000000     0.062120000000     0.595275000000   
C      0.447700000000     0.043655000000     0.668750000000   
C      0.300450000000     0.081210000000     0.582525000000   
H      0.394750000000     0.046995000000     0.716275000000   
H      0.333600000000     0.062550000000     0.679650000000   
H      0.353100000000     0.077465000000     0.536100000000   
H      0.414150000000     0.061950000000     0.572850000000   
O      0.207050000000     0.153200000000     0.716625000000   
O      0.221200000000     0.173300000000     0.641800000000   
O      0.031600000000     0.208450000000     0.614200000000   
O      0.043050000000     0.214850000000     0.535025000000   
C      0.161850000000     0.178550000000     0.647400000000   
C      0.137500000000     0.172200000000     0.676675000000   
C      0.101400000000     0.181800000000     0.655500000000   
C      0.089950000000     0.197585000000     0.605350000000   
C      0.114350000000     0.204150000000     0.575475000000   
C      0.150500000000     0.194500000000     0.596875000000   
C      0.199250000000     0.168015000000     0.669625000000   
C      0.052400000000     0.207645000000     0.583900000000   
H      0.145400000000     0.160850000000     0.712275000000   
H      0.084050000000     0.177250000000     0.676650000000   
H      0.106350000000     0.215500000000     0.539800000000   
H      0.168050000000     0.198950000000     0.575825000000   
H      0.247500000000     0.180300000000     0.569750000000   
H      0.496500000000     0.305100000000     0.561250000000   
Al     0.249850000000     0.371850000000     0.747300000000   
O      0.250050000000     0.401250000000     0.558725000000   
O      0.002200000000     0.026050000000     0.565400000000   
O      0.042050000000     0.284800000000     0.656950000000   
O      0.032250000000     0.294500000000     0.737675000000   
O      0.221350000000     0.329450000000     0.513725000000   
O      0.208750000000     0.342400000000     0.589750000000   
C      0.090100000000     0.303310000000     0.727625000000   
C      0.113650000000     0.303320000000     0.696150000000   
C      0.149650000000     0.312395000000     0.717975000000   
C      0.162150000000     0.321195000000     0.520600000000   
C      0.138500000000     0.321105000000     0.551600000000   
C      0.102600000000     0.312120000000     0.529725000000   
C      0.052300000000     0.293655000000     0.706250000000   
C      0.199550000000     0.331210000000     0.542475000000   
H      0.105250000000     0.296995000000     0.658725000000   
H      0.166400000000     0.312550000000     0.695350000000   
H      0.146900000000     0.327465000000     0.588900000000   
H      0.085850000000     0.311950000000     0.552150000000   
O      0.292950000000     0.403200000000     0.658375000000   
O      0.278800000000     0.423300000000     0.733200000000   
O      0.468400000000     0.458450000000     0.510800000000   
O      0.456950000000     0.464850000000     0.589975000000   
C      0.338150000000     0.428550000000     0.727600000000   
C      0.362500000000     0.422200000000     0.698325000000   
C      0.398600000000     0.431800000000     0.719500000000   
C      0.410050000000     0.447585000000     0.519650000000   
C      0.385650000000     0.454150000000     0.549525000000   
C      0.349500000000     0.444500000000     0.528125000000   
C      0.300750000000     0.418015000000     0.705375000000   
C      0.447600000000     0.457645000000     0.541100000000   
H      0.354600000000     0.410850000000     0.662725000000   
H      0.415950000000     0.427250000000     0.698350000000   
H      0.393650000000     0.465500000000     0.585200000000   
H      0.331950000000     0.448950000000     0.549175000000   
H      0.252500000000     0.430300000000     0.555250000000   
H      0.003500000000     0.055100000000     0.563750000000   
Al     0.249850000000     0.378150000000     0.622300000000   
O      0.250050000000     0.348750000000     0.683725000000   
O      0.002200000000     0.223950000000     0.690400000000   
O      0.042050000000     0.465200000000     0.531950000000   
O      0.032250000000     0.455500000000     0.612675000000   
O      0.221350000000     0.420550000000     0.638725000000   
O      0.208750000000     0.407600000000     0.714750000000   
C      0.090100000000     0.446690000000     0.602625000000   
C      0.113650000000     0.446680000000     0.571150000000   
C      0.149650000000     0.437605000000     0.592975000000   
C      0.162150000000     0.428805000000     0.645600000000   
C      0.138500000000     0.428895000000     0.676600000000   
C      0.102600000000     0.437880000000     0.654725000000   
C      0.052300000000     0.456345000000     0.581250000000   
C      0.199550000000     0.418790000000     0.667475000000   
H      0.105250000000     0.453005000000     0.533725000000   
H      0.166400000000     0.437450000000     0.570350000000   
H      0.146900000000     0.422535000000     0.713900000000   
H      0.085850000000     0.438050000000     0.677150000000   
O      0.292950000000     0.346800000000     0.533375000000   
O      0.278800000000     0.326700000000     0.608200000000   
O      0.468400000000     0.291550000000     0.635800000000   
O      0.456950000000     0.285150000000     0.714975000000   
C      0.338150000000     0.321450000000     0.602600000000   
C      0.362500000000     0.327800000000     0.573325000000   
C      0.398600000000     0.318200000000     0.594500000000   
C      0.410050000000     0.302415000000     0.644650000000   
C      0.385650000000     0.295850000000     0.674525000000   
C      0.349500000000     0.305500000000     0.653125000000   
C      0.300750000000     0.331985000000     0.580375000000   
C      0.447600000000     0.292355000000     0.666100000000   
H      0.354600000000     0.339150000000     0.537725000000   
H      0.415950000000     0.322750000000     0.573350000000   
H      0.393650000000     0.284500000000     0.710200000000   
H      0.331950000000     0.301050000000     0.674175000000   
H      0.252500000000     0.319700000000     0.680250000000   
H      0.003500000000     0.194900000000     0.688750000000   
Al     0.250150000000     0.128150000000     0.502700000000   
O      0.249950000000     0.098750000000     0.691275000000   
O      0.497800000000     0.473950000000     0.684600000000   
O      0.457950000000     0.215200000000     0.593050000000   
O      0.467750000000     0.205500000000     0.512325000000   
O      0.278650000000     0.170550000000     0.736275000000   
O      0.291250000000     0.157600000000     0.660250000000   
C      0.409900000000     0.196690000000     0.522375000000   
C      0.386350000000     0.196680000000     0.553850000000   
C      0.350350000000     0.187605000000     0.532025000000   
C      0.337850000000     0.178805000000     0.729400000000   
C      0.361500000000     0.178895000000     0.698400000000   
C      0.397400000000     0.187880000000     0.720275000000   
C      0.447700000000     0.206345000000     0.543750000000   
C      0.300450000000     0.168790000000     0.707525000000   
H      0.394750000000     0.203005000000     0.591275000000   
H      0.333600000000     0.187450000000     0.554650000000   
H      0.353100000000     0.172535000000     0.661100000000   
H      0.414150000000     0.188050000000     0.697850000000   
O      0.207050000000     0.096800000000     0.591625000000   
O      0.221200000000     0.076700000000     0.516800000000   
O      0.031600000000     0.041550000000     0.739200000000   
O      0.043050000000     0.035150000000     0.660025000000   
C      0.161850000000     0.071450000000     0.522400000000   
C      0.137500000000     0.077800000000     0.551675000000   
C      0.101400000000     0.068200000000     0.530500000000   
C      0.089950000000     0.052415000000     0.730350000000   
C      0.114350000000     0.045850000000     0.700475000000   
C      0.150500000000     0.055500000000     0.721875000000   
C      0.199250000000     0.081985000000     0.544625000000   
C      0.052400000000     0.042355000000     0.708900000000   
H      0.145400000000     0.089150000000     0.587275000000   
H      0.084050000000     0.072750000000     0.551650000000   
H      0.106350000000     0.034500000000     0.664800000000   
H      0.168050000000     0.051050000000     0.700825000000   
H      0.247500000000     0.069700000000     0.694750000000   
H      0.496500000000     0.444900000000     0.686250000000   
Al     0.000000000000     0.250000000000     0.500000000000   
Al     0.000000000000     0.000000000000     0.625000000000   
Al     0.000000000000     0.250000000000     0.625000000000   
Al     0.000000000000     0.000000000000     0.500000000000   
Al     0.250150000000     0.121850000000     0.877700000000   
O      0.249950000000     0.151250000000     0.816275000000   
O      0.497800000000     0.276050000000     0.809600000000   
O      0.457950000000     0.034800000000     0.968050000000   
O      0.467750000000     0.044500000000     0.887325000000   
O      0.278650000000     0.079450000000     0.861275000000   
O      0.291250000000     0.092400000000     0.785250000000   
C      0.409900000000     0.053310000000     0.897375000000   
C      0.386350000000     0.053320000000     0.928850000000   
C      0.350350000000     0.062395000000     0.907025000000   
C      0.337850000000     0.071195000000     0.854400000000   
C      0.361500000000     0.071105000000     0.823400000000   
C      0.397400000000     0.062120000000     0.845275000000   
C      0.447700000000     0.043655000000     0.918750000000   
C      0.300450000000     0.081210000000     0.832525000000   
H      0.394750000000     0.046995000000     0.966275000000   